100	5
25	200
20
30
10
40
20
20
20
10
20
30
40
20
10
10
20
20
20
20
40
10
10
40
30
10
20
30
20
10
10
10
20
10
10
30
20
40
10
30
10
30
20
10
20
10
10
10
10
10
10
30
19
3
5
16
16
19
23
20
19
17
9
3
6
17
16
16
9
21
27
23
14
8
5
8
16
31
7
27
30
13
10
9
14
18
2
28
13
19
25
6
13
14
3
23
6
26
35
9
15
3
40	50	0	240	0	0
25	85	0	191	10	3
22	75	0	199	10	3
22	85	0	190	10	1
20	80	141	171	10	1
20	85	0	189	10	3
18	75	95	125	10	1
15	75	0	194	10	3
15	80	91	121	10	2
10	35	91	121	10	1
10	40	119	149	10	1
8	40	59	89	10	3
8	45	0	197	10	3
5	35	142	172	10	1
5	45	0	194	10	1
2	40	58	88	10	2
0	40	0	188	10	3
0	45	149	179	10	1
44	5	0	184	10	2
42	10	0	189	10	3
42	15	0	194	10	2
40	5	0	185	10	2
40	15	92	122	10	3
38	5	65	95	10	3
38	15	0	194	10	3
35	5	154	184	10	2
95	30	0	171	10	3
95	35	62	92	10	1
92	30	0	174	10	3
90	35	0	177	10	2
88	30	74	104	10	2
88	35	0	179	10	1
87	30	0	178	10	1
85	25	51	81	10	2
85	35	0	182	10	1
67	85	139	169	10	3
65	85	43	73	10	2
65	82	0	189	10	2
62	80	75	105	10	1
60	80	37	67	10	3
60	85	85	115	10	2
58	75	92	122	10	2
55	80	33	63	10	1
55	85	0	191	10	1
55	82	64	94	10	1
20	82	37	67	10	3
18	80	0	192	10	1
2	45	0	191	10	1
42	5	0	184	10	3
42	12	104	134	10	3
72	35	0	194	10	2
55	20	0	196	10	3
25	30	0	205	10	2
20	50	91	121	10	2
55	60	0	211	10	3
30	60	140	170	10	1
50	35	130	160	10	1
30	25	0	203	10	3
15	10	152	182	10	2
10	20	0	187	10	3
15	60	0	203	10	1
45	65	0	214	10	1
65	35	52	82	10	2
65	20	0	190	10	1
45	30	53	83	10	1
35	40	11	41	10	1
41	37	133	163	10	3
64	42	70	100	10	2
40	60	144	174	10	3
31	52	41	71	10	1
35	69	180	210	10	2
65	55	0	204	10	3
63	65	0	202	10	3
2	60	0	190	10	2
20	20	141	171	10	1
5	5	0	172	10	1
60	12	75	105	10	3
23	3	150	180	10	2
8	56	90	120	10	2
6	68	89	119	10	2
47	47	192	222	10	1
49	58	0	217	10	2
27	43	0	215	10	1
37	31	0	210	10	1
57	29	96	126	10	3
63	23	0	194	10	3
21	24	0	197	10	1
12	24	90	120	10	2
24	58	67	97	10	2
67	5	0	177	10	2
37	47	0	225	10	3
49	42	0	217	10	2
53	43	14	44	10	1
61	52	178	208	10	2
57	48	0	212	10	2
56	37	0	209	10	1
55	54	0	214	10	1
4	18	0	181	10	3
26	52	0	215	10	3
26	35	77	107	10	1
31	67	180	210	10	2
64	21	0	240	5	4
94	76	0	240	5	4
2	73	0	240	5	4
18	6	0	240	5	4
60	12	0	240	5	4
0	0	1	0	0	
0	0	1	0	0	
0	0	0	0	0	
0	0	0	0	0	
0	0	1	0	0	
0	0	0	0	0	
0	0	1	0	0	
0	0	1	0	0	
0	0	0	0	0	
0	0	0	0	0	
0	0	1	0	0	
0	0	1	0	0	
0	0	0	0	0	
0	0	0	0	0	
0	0	1	0	0	
0	0	1	0	0	
0	0	0	0	0	
0	0	0	0	1	
0	0	0	0	1	
0	0	0	0	1	
0	0	0	0	1	
0	0	0	0	1	
0	0	0	1	0	
0	0	0	1	0	
0	0	0	1	0	
1	0	0	0	0	
0	0	0	0	0	
1	0	0	0	0	
1	0	0	0	0	
1	0	0	0	0	
0	0	0	0	0	
0	0	0	0	0	
1	0	0	0	0	
0	0	0	0	0	
0	1	0	0	0	
0	1	0	0	0	
0	1	0	0	0	
0	0	0	0	0	
0	1	0	0	0	
0	1	0	0	0	
0	1	0	0	0	
0	0	0	0	0	
0	0	0	0	0	
0	0	0	0	0	
0	0	1	0	0	
0	0	0	0	0	
0	0	0	0	0	
0	0	0	0	1	
0	0	0	0	1	
1	0	0	0	0	
1	0	0	0	0	
0	0	0	1	0	
0	0	1	0	0	
1	0	0	0	0	
0	0	0	0	0	
0	0	0	0	0	
0	0	0	1	0	
0	0	0	1	0	
0	0	0	1	0	
0	0	0	0	0	
0	0	0	0	0	
1	0	0	0	0	
0	0	0	0	0	
0	0	0	0	0	
0	0	0	0	0	
1	0	0	0	0	
1	0	0	0	0	
0	0	1	0	0	
0	0	0	0	0	
0	0	1	0	0	
1	0	0	0	0	
0	1	0	0	0	
0	0	1	0	0	
0	0	0	0	0	
0	0	0	0	0	
0	0	0	0	1	
0	0	0	1	0	
0	0	1	0	0	
0	0	1	0	0	
0	0	0	0	0	
1	0	0	0	0	
0	0	0	0	0	
0	0	0	0	0	
1	0	0	0	0	
1	0	0	0	0	
0	0	0	0	0	
0	0	0	1	0	
0	0	1	0	0	
0	0	0	0	1	
1	0	0	0	0	
1	0	0	0	0	
0	0	0	0	0	
1	0	0	0	0	
1	0	0	0	0	
0	0	0	0	0	
0	0	0	0	0	
0	0	0	1	0	
0	0	1	0	0	
0	0	0	0	0	
0	0	1	0	0	
